seed= 2052018 ;
N= 14 ;
M= 2 ;
F= 2 ;
K= 3 ;
T= 54 ;

p=[ 10 10 10 10 10 10 10 10 10 10 10 10 10 10 ];
r=[ 11 11 6 3 7 10 0 9 1 10 10 9 8 5 ];
d=[ 24 7 1 21 30 0 9 23 12 33 32 31 15 13 ];
s=[ 1 1 1 1 1 1 1 1 1 1 1 1 1 1 ];
w=[ 4 1 1 4 3 4 1 4 4 3 5 1 2 1 ];
f=[ 1 1 1 1 1 1 1 2 2 2 2 2 2 2 ];

e1=[ 10 10 10 10 10 10 10 10 10 10 10 10 10 10 10 10 10 10 10 10 10 10 10 10 10 10 10 8 8 8 8 8 8 8 8 8 8 8 8 8 8 8 8 8 8 8 8 8 8 8 8 8 8 8 ];
e2=[ 10 10 10 10 10 10 10 10 10 10 10 10 10 10 10 10 10 10 9 9 9 9 9 9 9 9 9 8 8 8 8 8 8 8 8 8 8 8 8 8 8 8 8 8 8 9 9 9 9 9 9 9 9 9 ];